certificates/rado_a7_c93_N16.cnf
c Rad2 upper bound instance: x1 + 7*x2 - x3 = 93, interval [1,16]
p cnf 16 72
1 6 14 0
-1 -6 -14 0
1 13 15 0
-1 -13 -15 0
2 7 14 0
-2 -7 -14 0
2 14 15 0
-2 -14 -15 0
1 3 13 0
-1 -3 -13 0
3 8 14 0
-3 -8 -14 0
3 15 0
-3 -15 0
2 4 13 0
-2 -4 -13 0
4 9 14 0
-4 -9 -14 0
4 15 16 0
-4 -15 -16 0
3 5 13 0
-3 -5 -13 0
5 10 14 0
-5 -10 -14 0
4 6 13 0
-4 -6 -13 0
6 11 14 0
-6 -11 -14 0
5 7 13 0
-5 -7 -13 0
7 12 14 0
-7 -12 -14 0
6 8 13 0
-6 -8 -13 0
8 13 14 0
-8 -13 -14 0
7 9 13 0
-7 -9 -13 0
9 14 0
-9 -14 0
1 10 12 0
-1 -10 -12 0
8 10 13 0
-8 -10 -13 0
10 14 15 0
-10 -14 -15 0
2 11 12 0
-2 -11 -12 0
9 11 13 0
-9 -11 -13 0
11 14 16 0
-11 -14 -16 0
3 12 0
-3 -12 0
10 12 13 0
-10 -12 -13 0
4 12 13 0
-4 -12 -13 0
11 13 0
-11 -13 0
5 12 14 0
-5 -12 -14 0
12 13 14 0
-12 -13 -14 0
6 12 15 0
-6 -12 -15 0
13 15 0
-13 -15 0
7 12 16 0
-7 -12 -16 0
13 14 16 0
-13 -14 -16 0
