certificates/rado_a7_c93_N16.drat
-15 -16 0
-16 0
15 0
-3 0
-13 0
5 0
12 0
11 0
14 0
1 0
0
